Route #1: 1 32 28 29 19
Route #2: 48 37 27 12 33 9 7 40
Route #3: 36 43 24 16 11 20
Route #4: 15 35 45 41 10 23
Route #5: 2 30 5 14
Route #6: 39 21 42 17 8 3
Route #7: 22 38 46 13 31 6 44
Route #8: 25 4 18 26 47 49 34
cost 1354.845458984375